MARKOV
13
2 2 2 2 2 2 2 2 2 2 2 2 2
24
1 0
1 1
1 6
1 7
1 8
1 9
1 10
1 11
1 12
1 2
1 3
1 4
1 5
2 6 0
2 8 0
2 9 0
2 12 0
2 2 0
2 4 0
2 6 1
2 7 1
2 8 1
2 9 1
2 4 1

2
0.5 0.5
2
0.5 0.5
2
0.09999999999999998 0.9
2
0.09999999999999998 0.9
2
0.09999999999999998 0.9
2
0.09999999999999998 0.9
2
0.09999999999999998 0.9
2
0.09999999999999998 0.9
2
0.09999999999999998 0.9
2
0.09999999999999998 0.9
2
0.09999999999999998 0.9
2
0.09999999999999998 0.9
2
0.09999999999999998 0.9
4
0.5 0.5 0.0 1.0
4
0.5 0.5 0.0 1.0
4
0.5 0.5 0.0 1.0
4
0.5 0.5 0.0 1.0
4
0.5 0.5 0.0 1.0
4
0.5 0.5 0.0 1.0
4
0.5 0.5 0.0 1.0
4
0.5 0.5 0.0 1.0
4
0.5 0.5 0.0 1.0
4
0.5 0.5 0.0 1.0
4
0.5 0.5 0.0 1.0